16
0 7 73
0 13 35
1 5 43
1 13 67
1 15 15
2 9 13
3 6 49
3 12 39
3 14 67
4 2 24
4 3 46
4 8 41
4 10 87
4 11 2
5 9 15
5 10 52
6 8 26
7 14 38
8 0 91
8 1 6
8 7 60
8 9 9
8 11 43
8 15 39
9 6 85
9 14 49
10 4 9
10 9 77
10 13 32
10 14 31
11 5 90
11 6 3
11 12 93
11 14 32
11 15 45
12 0 27
12 4 45
12 7 62
12 9 88
12 10 1
12 11 84
13 0 13
13 5 13
13 10 54
13 14 68
14 2 39
14 6 54
14 9 95
14 12 2
14 15 1
